language Essence 1.3

letting class be
        function(1 --> 2, 2 --> 1, 3 --> 4, 4 --> 5, 5 --> 7, 6 --> 1, 7 --> 3, 8 --> 4, 9 --> 5, 10 --> 2, 11 --> 1,
                 12 --> 2, 13 --> 3, 14 --> 7, 15 --> 4, 16 --> 6, 17 --> 2, 18 --> 3, 19 --> 6, 20 --> 7, 21 --> 7,
                 22 --> 5, 23 --> 1, 24 --> 5, 25 --> 2, 26 --> 5, 27 --> 1)
letting deck_length be 93
letting deck_width be 33
letting length be
        function(1 --> 1, 2 --> 2, 3 --> 1, 4 --> 1, 5 --> 1, 6 --> 1, 7 --> 1, 8 --> 1, 9 --> 19, 10 --> 1, 11 --> 1,
                 12 --> 1, 13 --> 10, 14 --> 1, 15 --> 1, 16 --> 1, 17 --> 1, 18 --> 1, 19 --> 3, 20 --> 1, 21 --> 1,
                 22 --> 1, 23 --> 1, 24 --> 1, 25 --> 1, 26 --> 7, 27 --> 1)
letting n_classes be 7
letting n_containers be 27
letting separation be function()
letting width be
        function(1 --> 20, 2 --> 1, 3 --> 10, 4 --> 9, 5 --> 17, 6 --> 17, 7 --> 23, 8 --> 6, 9 --> 28, 10 --> 5,
                 11 --> 23, 12 --> 22, 13 --> 30, 14 --> 20, 15 --> 9, 16 --> 15, 17 --> 17, 18 --> 10, 19 --> 27,
                 20 --> 16, 21 --> 1, 22 --> 28, 23 --> 10, 24 --> 1, 25 --> 25, 26 --> 30, 27 --> 13)
